p cnf 323 945
c inputs: 1 2 3 4 5 6 7 8
c variables for gates: 9 ... 315
c outputs: 316 317 318 319 320 321 322 323
c random input: -1 2 3 -4 -5 -6 -7 -8
9 -3 -7 0
-9 3 0
-9 7 0
10 -4 -7 0
-10 4 0
-10 7 0
11 -3 -8 0
-11 3 0
-11 8 0
12 -4 -8 0
-12 4 0
-12 8 0
13 -10 11 0
-13 10 0
-13 -11 0
14 -11 10 0
-14 11 0
-14 -10 0
15 14 13 0
-15 -14 0
-15 -13 0
16 -10 -11 0
-16 10 0
-16 11 0
17 12 -16 0
-17 -12 0
-17 16 0
18 -12 16 0
-18 12 0
-18 -16 0
19 17 18 0
-19 -17 0
-19 -18 0
20 -12 -16 0
-20 12 0
-20 16 0
21 -1 -5 0
-21 1 0
-21 5 0
22 -2 -5 0
-22 2 0
-22 5 0
23 -1 -6 0
-23 1 0
-23 6 0
24 -2 -6 0
-24 2 0
-24 6 0
25 -22 23 0
-25 22 0
-25 -23 0
26 -23 22 0
-26 23 0
-26 -22 0
27 26 25 0
-27 -26 0
-27 -25 0
28 -22 -23 0
-28 22 0
-28 23 0
29 24 -28 0
-29 -24 0
-29 28 0
30 -24 28 0
-30 24 0
-30 -28 0
31 29 30 0
-31 -29 0
-31 -30 0
32 -24 -28 0
-32 24 0
-32 28 0
33 -3 1 0
-33 3 0
-33 -1 0
34 -1 3 0
-34 1 0
-34 -3 0
35 34 33 0
-35 -34 0
-35 -33 0
36 -4 2 0
-36 4 0
-36 -2 0
37 -2 4 0
-37 2 0
-37 -4 0
38 37 36 0
-38 -37 0
-38 -36 0
39 -1 -3 0
-39 1 0
-39 3 0
40 39 38 0
-40 -39 0
-40 -38 0
41 -39 -38 0
-41 39 0
-41 38 0
42 40 41 0
-42 -40 0
-42 -41 0
43 -2 -4 0
-43 2 0
-43 4 0
44 -1 -3 0
-44 1 0
-44 3 0
45 -4 -44 0
-45 4 0
-45 44 0
46 -1 -3 0
-46 1 0
-46 3 0
47 -2 -46 0
-47 2 0
-47 46 0
48 47 45 0
-48 -47 0
-48 -45 0
49 43 -48 0
-49 -43 0
-49 48 0
50 -7 5 0
-50 7 0
-50 -5 0
51 -5 7 0
-51 5 0
-51 -7 0
52 51 50 0
-52 -51 0
-52 -50 0
53 -8 6 0
-53 8 0
-53 -6 0
54 -6 8 0
-54 6 0
-54 -8 0
55 53 54 0
-55 -53 0
-55 -54 0
56 -5 -7 0
-56 5 0
-56 7 0
57 56 55 0
-57 -56 0
-57 -55 0
58 -56 -55 0
-58 56 0
-58 55 0
59 57 58 0
-59 -57 0
-59 -58 0
60 -6 -8 0
-60 6 0
-60 8 0
61 -5 -7 0
-61 5 0
-61 7 0
62 -8 -61 0
-62 8 0
-62 61 0
63 -5 -7 0
-63 5 0
-63 7 0
64 -6 -63 0
-64 6 0
-64 63 0
65 64 62 0
-65 -64 0
-65 -62 0
66 60 -65 0
-66 -60 0
-66 65 0
67 52 35 0
-67 -52 0
-67 -35 0
68 52 42 0
-68 -52 0
-68 -42 0
69 52 49 0
-69 -52 0
-69 -49 0
70 35 59 0
-70 -35 0
-70 -59 0
71 42 59 0
-71 -42 0
-71 -59 0
72 49 59 0
-72 -49 0
-72 -59 0
73 35 66 0
-73 -35 0
-73 -66 0
74 66 42 0
-74 -66 0
-74 -42 0
75 66 49 0
-75 -66 0
-75 -49 0
76 -68 -70 0
-76 68 0
-76 70 0
77 -68 70 0
-77 68 0
-77 -70 0
78 68 -70 0
-78 -68 0
-78 70 0
79 77 78 0
-79 -77 0
-79 -78 0
80 -69 -71 0
-80 69 0
-80 71 0
81 -73 -69 0
-81 73 0
-81 69 0
82 -73 -71 0
-82 73 0
-82 71 0
83 81 82 0
-83 -81 0
-83 -82 0
84 -83 80 0
-84 83 0
-84 -80 0
85 73 -71 0
-85 -73 0
-85 71 0
86 -73 71 0
-86 73 0
-86 -71 0
87 86 85 0
-87 -86 0
-87 -85 0
88 -69 -87 0
-88 69 0
-88 87 0
89 69 87 0
-89 -69 0
-89 -87 0
90 88 89 0
-90 -88 0
-90 -89 0
91 -74 -72 0
-91 74 0
-91 72 0
92 74 -72 0
-92 -74 0
-92 72 0
93 -74 72 0
-93 74 0
-93 -72 0
94 92 93 0
-94 -92 0
-94 -93 0
95 90 76 0
-95 -90 0
-95 -76 0
96 -90 -76 0
-96 90 0
-96 76 0
97 95 96 0
-97 -95 0
-97 -96 0
98 90 -76 0
-98 -90 0
-98 76 0
99 94 -84 0
-99 -94 0
-99 84 0
100 -94 84 0
-100 94 0
-100 -84 0
101 99 100 0
-101 -99 0
-101 -100 0
102 -101 -98 0
-102 101 0
-102 98 0
103 101 98 0
-103 -101 0
-103 -98 0
104 102 103 0
-104 -102 0
-104 -103 0
105 -98 94 0
-105 98 0
-105 -94 0
106 -98 84 0
-106 98 0
-106 -84 0
107 94 84 0
-107 -94 0
-107 -84 0
108 106 107 0
-108 -106 0
-108 -107 0
109 105 -108 0
-109 -105 0
-109 108 0
110 -75 91 0
-110 75 0
-110 -91 0
111 75 -91 0
-111 -75 0
-111 91 0
112 111 110 0
-112 -111 0
-112 -110 0
113 109 -112 0
-113 -109 0
-113 112 0
114 -109 112 0
-114 109 0
-114 -112 0
115 114 113 0
-115 -114 0
-115 -113 0
116 -75 109 0
-116 75 0
-116 -109 0
117 109 -91 0
-117 -109 0
-117 91 0
118 -75 -91 0
-118 75 0
-118 91 0
119 117 118 0
-119 -117 0
-119 -118 0
120 116 -119 0
-120 -116 0
-120 119 0
121 -9 -15 0
-121 9 0
-121 15 0
122 9 15 0
-122 -9 0
-122 -15 0
123 121 122 0
-123 -121 0
-123 -122 0
124 9 -15 0
-124 -9 0
-124 15 0
125 124 -19 0
-125 -124 0
-125 19 0
126 -124 19 0
-126 124 0
-126 -19 0
127 126 125 0
-127 -126 0
-127 -125 0
128 -124 -19 0
-128 124 0
-128 19 0
129 20 128 0
-129 -20 0
-129 -128 0
130 -20 -128 0
-130 20 0
-130 128 0
131 129 130 0
-131 -129 0
-131 -130 0
132 20 -128 0
-132 -20 0
-132 128 0
133 9 -67 0
-133 -9 0
-133 67 0
134 -9 67 0
-134 9 0
-134 -67 0
135 134 133 0
-135 -134 0
-135 -133 0
136 -123 79 0
-136 123 0
-136 -79 0
137 123 -79 0
-137 -123 0
-137 79 0
138 136 137 0
-138 -136 0
-138 -137 0
139 -9 -67 0
-139 9 0
-139 67 0
140 139 138 0
-140 -139 0
-140 -138 0
141 -139 -138 0
-141 139 0
-141 138 0
142 140 141 0
-142 -140 0
-142 -141 0
143 123 79 0
-143 -123 0
-143 -79 0
144 -9 -67 0
-144 9 0
-144 67 0
145 -144 79 0
-145 144 0
-145 -79 0
146 -9 -67 0
-146 9 0
-146 67 0
147 -146 123 0
-147 146 0
-147 -123 0
148 147 145 0
-148 -147 0
-148 -145 0
149 143 -148 0
-149 -143 0
-149 148 0
150 -127 97 0
-150 127 0
-150 -97 0
151 127 -97 0
-151 -127 0
-151 97 0
152 151 150 0
-152 -151 0
-152 -150 0
153 152 -149 0
-153 -152 0
-153 149 0
154 -152 149 0
-154 152 0
-154 -149 0
155 153 154 0
-155 -153 0
-155 -154 0
156 127 97 0
-156 -127 0
-156 -97 0
157 149 97 0
-157 -149 0
-157 -97 0
158 127 149 0
-158 -127 0
-158 -149 0
159 158 157 0
-159 -158 0
-159 -157 0
160 -159 156 0
-160 159 0
-160 -156 0
161 -131 104 0
-161 131 0
-161 -104 0
162 131 -104 0
-162 -131 0
-162 104 0
163 161 162 0
-163 -161 0
-163 -162 0
164 -160 163 0
-164 160 0
-164 -163 0
165 160 -163 0
-165 -160 0
-165 163 0
166 164 165 0
-166 -164 0
-166 -165 0
167 131 104 0
-167 -131 0
-167 -104 0
168 160 104 0
-168 -160 0
-168 -104 0
169 160 131 0
-169 -160 0
-169 -131 0
170 168 169 0
-170 -168 0
-170 -169 0
171 -170 167 0
-171 170 0
-171 -167 0
172 -132 115 0
-172 132 0
-172 -115 0
173 132 -115 0
-173 -132 0
-173 115 0
174 173 172 0
-174 -173 0
-174 -172 0
175 -171 174 0
-175 171 0
-175 -174 0
176 171 -174 0
-176 -171 0
-176 174 0
177 176 175 0
-177 -176 0
-177 -175 0
178 132 115 0
-178 -132 0
-178 -115 0
179 171 115 0
-179 -171 0
-179 -115 0
180 132 171 0
-180 -132 0
-180 -171 0
181 179 180 0
-181 -179 0
-181 -180 0
182 -181 178 0
-182 181 0
-182 -178 0
183 -132 120 0
-183 132 0
-183 -120 0
184 132 -120 0
-184 -132 0
-184 120 0
185 183 184 0
-185 -183 0
-185 -184 0
186 185 -182 0
-186 -185 0
-186 182 0
187 -185 182 0
-187 185 0
-187 -182 0
188 186 187 0
-188 -186 0
-188 -187 0
189 -21 -27 0
-189 21 0
-189 27 0
190 21 27 0
-190 -21 0
-190 -27 0
191 189 190 0
-191 -189 0
-191 -190 0
192 21 -27 0
-192 -21 0
-192 27 0
193 192 -31 0
-193 -192 0
-193 31 0
194 -192 31 0
-194 192 0
-194 -31 0
195 194 193 0
-195 -194 0
-195 -193 0
196 -192 -31 0
-196 192 0
-196 31 0
197 32 196 0
-197 -32 0
-197 -196 0
198 -32 -196 0
-198 32 0
-198 196 0
199 197 198 0
-199 -197 0
-199 -198 0
200 32 -196 0
-200 -32 0
-200 196 0
201 21 135 0
-201 -21 0
-201 -135 0
202 -21 -135 0
-202 21 0
-202 135 0
203 201 202 0
-203 -201 0
-203 -202 0
204 -191 142 0
-204 191 0
-204 -142 0
205 191 -142 0
-205 -191 0
-205 142 0
206 205 204 0
-206 -205 0
-206 -204 0
207 -21 135 0
-207 21 0
-207 -135 0
208 207 206 0
-208 -207 0
-208 -206 0
209 -207 -206 0
-209 207 0
-209 206 0
210 208 209 0
-210 -208 0
-210 -209 0
211 191 142 0
-211 -191 0
-211 -142 0
212 -21 135 0
-212 21 0
-212 -135 0
213 -212 142 0
-213 212 0
-213 -142 0
214 -21 135 0
-214 21 0
-214 -135 0
215 191 -214 0
-215 -191 0
-215 214 0
216 213 215 0
-216 -213 0
-216 -215 0
217 211 -216 0
-217 -211 0
-217 216 0
218 -195 155 0
-218 195 0
-218 -155 0
219 195 -155 0
-219 -195 0
-219 155 0
220 218 219 0
-220 -218 0
-220 -219 0
221 220 -217 0
-221 -220 0
-221 217 0
222 -220 217 0
-222 220 0
-222 -217 0
223 222 221 0
-223 -222 0
-223 -221 0
224 195 155 0
-224 -195 0
-224 -155 0
225 217 155 0
-225 -217 0
-225 -155 0
226 195 217 0
-226 -195 0
-226 -217 0
227 226 225 0
-227 -226 0
-227 -225 0
228 224 -227 0
-228 -224 0
-228 227 0
229 -199 166 0
-229 199 0
-229 -166 0
230 199 -166 0
-230 -199 0
-230 166 0
231 230 229 0
-231 -230 0
-231 -229 0
232 231 -228 0
-232 -231 0
-232 228 0
233 -231 228 0
-233 231 0
-233 -228 0
234 232 233 0
-234 -232 0
-234 -233 0
235 199 166 0
-235 -199 0
-235 -166 0
236 228 166 0
-236 -228 0
-236 -166 0
237 199 228 0
-237 -199 0
-237 -228 0
238 236 237 0
-238 -236 0
-238 -237 0
239 -238 235 0
-239 238 0
-239 -235 0
240 -200 177 0
-240 200 0
-240 -177 0
241 200 -177 0
-241 -200 0
-241 177 0
242 241 240 0
-242 -241 0
-242 -240 0
243 -239 242 0
-243 239 0
-243 -242 0
244 239 -242 0
-244 -239 0
-244 242 0
245 244 243 0
-245 -244 0
-245 -243 0
246 200 177 0
-246 -200 0
-246 -177 0
247 239 177 0
-247 -239 0
-247 -177 0
248 239 200 0
-248 -239 0
-248 -200 0
249 247 248 0
-249 -247 0
-249 -248 0
250 -249 246 0
-250 249 0
-250 -246 0
251 -200 188 0
-251 200 0
-251 -188 0
252 200 -188 0
-252 -200 0
-252 188 0
253 252 251 0
-253 -252 0
-253 -251 0
254 253 -250 0
-254 -253 0
-254 250 0
255 -253 250 0
-255 253 0
-255 -250 0
256 254 255 0
-256 -254 0
-256 -255 0
257 31 -203 0
-257 -31 0
-257 203 0
258 -31 203 0
-258 31 0
-258 -203 0
259 257 258 0
-259 -257 0
-259 -258 0
260 31 203 0
-260 -31 0
-260 -203 0
261 -32 -210 0
-261 32 0
-261 210 0
262 32 210 0
-262 -32 0
-262 -210 0
263 261 262 0
-263 -261 0
-263 -262 0
264 263 260 0
-264 -263 0
-264 -260 0
265 -263 -260 0
-265 263 0
-265 260 0
266 264 265 0
-266 -264 0
-266 -265 0
267 -32 210 0
-267 32 0
-267 -210 0
268 -32 -260 0
-268 32 0
-268 260 0
269 210 -260 0
-269 -210 0
-269 260 0
270 269 268 0
-270 -269 0
-270 -268 0
271 -270 267 0
-271 270 0
-271 -267 0
272 -9 -271 0
-272 9 0
-272 271 0
273 9 271 0
-273 -9 0
-273 -271 0
274 272 273 0
-274 -272 0
-274 -273 0
275 -274 223 0
-275 274 0
-275 -223 0
276 274 -223 0
-276 -274 0
-276 223 0
277 276 275 0
-277 -276 0
-277 -275 0
278 -9 223 0
-278 9 0
-278 -223 0
279 271 223 0
-279 -271 0
-279 -223 0
280 -9 271 0
-280 9 0
-280 -271 0
281 279 280 0
-281 -279 0
-281 -280 0
282 -281 278 0
-282 281 0
-282 -278 0
283 15 -282 0
-283 -15 0
-283 282 0
284 -15 282 0
-284 15 0
-284 -282 0
285 284 283 0
-285 -284 0
-285 -283 0
286 -285 234 0
-286 285 0
-286 -234 0
287 285 -234 0
-287 -285 0
-287 234 0
288 286 287 0
-288 -286 0
-288 -287 0
289 15 234 0
-289 -15 0
-289 -234 0
290 282 234 0
-290 -282 0
-290 -234 0
291 15 282 0
-291 -15 0
-291 -282 0
292 290 291 0
-292 -290 0
-292 -291 0
293 -292 289 0
-293 292 0
-293 -289 0
294 19 -293 0
-294 -19 0
-294 293 0
295 -19 293 0
-295 19 0
-295 -293 0
296 294 295 0
-296 -294 0
-296 -295 0
297 245 -296 0
-297 -245 0
-297 296 0
298 -245 296 0
-298 245 0
-298 -296 0
299 298 297 0
-299 -298 0
-299 -297 0
300 19 245 0
-300 -19 0
-300 -245 0
301 245 293 0
-301 -245 0
-301 -293 0
302 19 293 0
-302 -19 0
-302 -293 0
303 301 302 0
-303 -301 0
-303 -302 0
304 300 -303 0
-304 -300 0
-304 303 0
305 -20 -304 0
-305 20 0
-305 304 0
306 20 304 0
-306 -20 0
-306 -304 0
307 305 306 0
-307 -305 0
-307 -306 0
308 256 -307 0
-308 -256 0
-308 307 0
309 -256 307 0
-309 256 0
-309 -307 0
310 308 309 0
-310 -308 0
-310 -309 0
311 -20 256 0
-311 20 0
-311 -256 0
312 304 256 0
-312 -304 0
-312 -256 0
313 -20 304 0
-313 20 0
-313 -304 0
314 312 313 0
-314 -312 0
-314 -313 0
315 311 -314 0
-315 -311 0
-315 314 0
-316 21 0
316 -21 0
-317 -27 0
317 27 0
-318 -259 0
318 259 0
-319 -266 0
319 266 0
-320 -277 0
320 277 0
-321 -288 0
321 288 0
-322 -299 0
322 299 0
-323 -310 0
323 310 0
-316 0
-317 0
-318 0
-319 0
-320 0
-321 0
-322 0
-323 0
